$rem
   JOBTYPE  sp
   EXCHANGE   wb97x-d
   BASIS   def2-svp
   UNRESTRICTED   False
   geom_opt_coords   0
   max_scf_cycles   1000
   geom_opt_max_cycles   1
   QM_MM_INTERFACE   Zeolite
   force_field   charmm27
   user_connect   TRUE
   symmetry   off
   sym_ignore   TRUE
   print_input   true
   qmmm_print   false
   qm_mm   TRUE
   thresh 10
   scf_convergence 7   
   AIMD_FIXED_ATOMS 1381
   geom_opt_dmax   80
   pop_mulliken false
$end

$QM_ATOMS
1
2
3
4
5
6
7
8
9
10
11
12
13
14
15
16
17
18
19
20
21
22
23
24
25
26
27
28
29
30
31
32
33
34
35
36
37
38
39
40
41
42
43
44
45
46
47
48
49
50
51
52
53
54
55
56
57
$end

$force_field_params
NumAtomTypes   3000
AtomType   -1   -0.35   1.77   -0.018
AtomType   -13   -0.35   1.77   -0.018
AtomType   -2   0.7   2.2   -0.047
AtomType   -3   -0.175   0.01   0
AtomType   -4    0.175   0.01   0
AtomType   -23   0.525   2.2   -0.047
AtomType   -22   0.35   2.2   -0.047
AtomType   -21   0.175   2.2   -0.047
AtomType   -111   0   1.34   -0.024
AtomType   -112   0   1.34   -0.035
AtomType   -121   0   2.05   -0.078
AtomType   -122   0   2.01   -0.056
AtomType   -912   0   2.175   -0.055
AtomType   -916   0   1.77   -0.1521
AtomType   -901   0   1.32   -0.022
AtomType   -801   0   0.2245   -0.046
AtomType    -31 0   1.9924  -0.07
AtomType    -32 0   2.09    -0.068
AtomType    -33 0   2.08    -0.064
AtomType    -34 0   1.87    -0.18
AtomType    -35 0   2.00    -0.032
AtomType    -41 0   0.2245  -0.046
AtomType    -42 0   0.87    -0.012
AtomType    -43 0   1.1 -0.046
AtomType    -44 0   1.3582  -0.03
AtomType    -45 0   1.26    -0.026
AtomType    -46 0   1.25    -0.031
AtomType    -47 0   1.34    -0.045
AtomType    -51 0   1.765   -0.1921
AtomType    -61 0   1.98    -0.07
AtomType    -62 0   1.89    -0.06
AtomType    -63 0   1.79    -0.18
Bond   -1   -2   304   1.682
Bond   -1   -3   204   1.489
Bond   -2   -3   100   1.45
Angle   -1   -2   -1   34   150
Angle   -2   -1   -2   30   121.5
Angle   -3   -1   -2   44   118
Angle   -1   -2   -3   30   109.5
Torsion   -2   -1   -2   -1   0.1   120   3
Torsion   -2   -1   -2   -3   0.3   120   3
Bond   -121   -122   222.5   1.528
Bond   -121   -121   222.5   1.528
Bond   -122   -122   222.5   1.528
Bond   -111   -121   309   1.089
Bond   -112   -122   309   1.089
Angle   -121   -122   -122   58   115
Angle   -121   -121   -122   58   115
Angle   -121   -121   -121   58   115
Angle   -122   -122   -122   58   115
Angle   -111   -121   -111   35.5   108.4
Angle   -111   -121   -121   35.5   108.4
Angle   -111   -121   -122   35.5   108.4
Angle   -112   -122   -112   35.5   108.4
Angle   -112   -122   -121   35.5   108.4
Angle   -112   -122   -122   35.5   108.4
Torsion   -111   -121   -122   -122   0.16   120   3
Torsion   -111   -121   -121   -121   0.16   120   3
Torsion   -111   -121   -121   -111   0.16   120   3
Torsion   -111   -121   -122   -112   0.16   120   3
Torsion   -112   -122   -122   -122   95.16   180   2
Torsion   -112   -122   -122   -112   95.16   180   2
Torsion   -121   -122   -122   -122   95.16   180   2
Torsion   -121   -122   -122   -112   95.16   180   2
Torsion   -122   -122   -122   -112   95.16   180   2
Torsion   -112   -122   -122   -121   95.16   180   2
Bond   -13   -1   304   1.682
Bond   -13   -121   222.5   1.55
Angle   -13   -121   -121   40   111
Angle   -13   -121   -1   34   150
Angle   -13   -121   -111   35.5   115
Torsion   -1   -13   -121   -121   0.2   120   3
Torsion   -1   -13   -121   -111   0.2   120   3
Bond   -901   -912   342.991   1.093
Bond   -801   -916   560.905   0.972
Bond   -916   -912   363.214   1.418
Bond   -912   -912   306.432   1.508
Angle   -916   -912   -912   71.39   108.133
Angle   -916   -912   -916   83.192   111.368
Angle   -916   -912   -901   56.205   108.577
Angle   -912   -912   -901   45.77   110.549
Angle   -912   -916   -912   86.143   106.926
Angle   -912   -912   -912   61.243   109.608
Angle   -912   -916   -801   57.069   106.503
Angle   -901   -912   -901   37.134   108.836
Torsion   -912   -916   -912   -912   -0.341   0   1
Torsion   -912   -916   -912   -912   0.378   180   2
Torsion   -912   -916   -912   -912   0.378   0   3
Torsion   -912   -916   -912   -901   0.285   0   1
Torsion   -912   -916   -912   -901   0.16   180   2
Torsion   -912   -916   -912   -901   0.285   0   3
Torsion   -912   -912   -912   -912   0.051   0   1
Torsion   -912   -912   -912   -912   0.341   180   2
Torsion   -912   -912   -912   -912   0.166   0   3
Torsion   -912   -912   -912   -916   -0.344   0   1
Torsion   -912   -912   -912   -916   0.878   180   2
Torsion   -912   -912   -912   -916   0.238   0   3
Torsion   -912   -912   -912   -901   0.32   0   1
Torsion   -912   -912   -912   -901   -0.315   180   2
Torsion   -912   -912   -912   -901   0.132   0   3
Torsion   -912   -912   -916   -801   0.135   180   2
Torsion   -912   -912   -916   -801   0.118   0   3
Torsion   -916   -912   -912   -916   0.204   0   1
Torsion   -916   -912   -912   -916   0.699   180   2
Torsion   -916   -912   -912   -916   0.48   0   3
Torsion   -916   -912   -912   -901   -0.327   0   1
Torsion   -916   -912   -912   -901   0.536   180   2
Torsion   -916   -912   -912   -901   0.14   0   3
Torsion   -916   -912   -916   -801   0.744   0   1
Torsion   -916   -912   -916   -801   -1.7   180   2
Torsion   -916   -912   -916   -801   -0.16   0   3
Torsion   -912   -916   -912   -916   0.115   0   1
Torsion   -912   -916   -912   -916   -0.355   180   2
Torsion   -912   -916   -912   -916   0.361   0   3
Torsion   -901   -912   -912   -901   0.142   0   1
Torsion   -901   -912   -912   -901   -0.693   180   2
Torsion   -901   -912   -912   -901   0.157   0   3
Torsion   -901   -912   -916   -801   0.298   0   1
Torsion   -901   -912   -916   -801   -0.138   180   2
Torsion   -901   -912   -916   -801   0.173   0   3
Imptor	-912   -912   -916   -916       0.000  0     0.00
Imptor	-912   -916   -916   -901     0.000  0     0.00
Imptor	-912   -912   -916   -912       0.000  0     0.00
Imptor	-912   -912   -916   -901     0.000  0     0.00
Imptor	-912   -912   -912   -916       0.000  0     0.00
Imptor	-912   -912   -912   -901     0.000  0     0.00
Imptor	-912   -916   -912   -901     0.000  0     0.00
$end

$opt
fixed
58 XYZ
59 XYZ
60 XYZ
61 XYZ
62 XYZ
63 XYZ
64 XYZ
65 XYZ
66 XYZ
67 XYZ
68 XYZ
69 XYZ
70 XYZ
71 XYZ
72 XYZ
73 XYZ
74 XYZ
75 XYZ
76 XYZ
77 XYZ
78 XYZ
79 XYZ
80 XYZ
81 XYZ
82 XYZ
83 XYZ
84 XYZ
85 XYZ
86 XYZ
87 XYZ
88 XYZ
89 XYZ
90 XYZ
91 XYZ
92 XYZ
93 XYZ
94 XYZ
95 XYZ
96 XYZ
97 XYZ
98 XYZ
99 XYZ
100 XYZ
101 XYZ
102 XYZ
103 XYZ
104 XYZ
105 XYZ
106 XYZ
107 XYZ
108 XYZ
109 XYZ
110 XYZ
111 XYZ
112 XYZ
113 XYZ
114 XYZ
115 XYZ
116 XYZ
117 XYZ
118 XYZ
119 XYZ
120 XYZ
121 XYZ
122 XYZ
123 XYZ
124 XYZ
125 XYZ
126 XYZ
127 XYZ
128 XYZ
129 XYZ
130 XYZ
131 XYZ
132 XYZ
133 XYZ
134 XYZ
135 XYZ
136 XYZ
137 XYZ
138 XYZ
139 XYZ
140 XYZ
141 XYZ
142 XYZ
143 XYZ
144 XYZ
145 XYZ
146 XYZ
147 XYZ
148 XYZ
149 XYZ
150 XYZ
151 XYZ
152 XYZ
153 XYZ
154 XYZ
155 XYZ
156 XYZ
157 XYZ
158 XYZ
159 XYZ
160 XYZ
161 XYZ
162 XYZ
163 XYZ
164 XYZ
165 XYZ
166 XYZ
167 XYZ
168 XYZ
169 XYZ
170 XYZ
171 XYZ
172 XYZ
173 XYZ
174 XYZ
175 XYZ
176 XYZ
177 XYZ
178 XYZ
179 XYZ
180 XYZ
181 XYZ
182 XYZ
183 XYZ
184 XYZ
185 XYZ
186 XYZ
187 XYZ
188 XYZ
189 XYZ
190 XYZ
191 XYZ
192 XYZ
193 XYZ
194 XYZ
195 XYZ
196 XYZ
197 XYZ
198 XYZ
199 XYZ
200 XYZ
201 XYZ
202 XYZ
203 XYZ
204 XYZ
205 XYZ
206 XYZ
207 XYZ
208 XYZ
209 XYZ
210 XYZ
211 XYZ
212 XYZ
213 XYZ
214 XYZ
215 XYZ
216 XYZ
217 XYZ
218 XYZ
219 XYZ
220 XYZ
221 XYZ
222 XYZ
223 XYZ
224 XYZ
225 XYZ
226 XYZ
227 XYZ
228 XYZ
229 XYZ
230 XYZ
231 XYZ
232 XYZ
233 XYZ
234 XYZ
235 XYZ
236 XYZ
237 XYZ
238 XYZ
239 XYZ
240 XYZ
241 XYZ
242 XYZ
243 XYZ
244 XYZ
245 XYZ
246 XYZ
247 XYZ
248 XYZ
249 XYZ
250 XYZ
251 XYZ
252 XYZ
253 XYZ
254 XYZ
255 XYZ
256 XYZ
257 XYZ
258 XYZ
259 XYZ
260 XYZ
261 XYZ
262 XYZ
263 XYZ
264 XYZ
265 XYZ
266 XYZ
267 XYZ
268 XYZ
269 XYZ
270 XYZ
271 XYZ
272 XYZ
273 XYZ
274 XYZ
275 XYZ
276 XYZ
277 XYZ
278 XYZ
279 XYZ
280 XYZ
281 XYZ
282 XYZ
283 XYZ
284 XYZ
285 XYZ
286 XYZ
287 XYZ
288 XYZ
289 XYZ
290 XYZ
291 XYZ
292 XYZ
293 XYZ
294 XYZ
295 XYZ
296 XYZ
297 XYZ
298 XYZ
299 XYZ
300 XYZ
301 XYZ
302 XYZ
303 XYZ
304 XYZ
305 XYZ
306 XYZ
307 XYZ
308 XYZ
309 XYZ
310 XYZ
311 XYZ
312 XYZ
313 XYZ
314 XYZ
315 XYZ
316 XYZ
317 XYZ
318 XYZ
319 XYZ
320 XYZ
321 XYZ
322 XYZ
323 XYZ
324 XYZ
325 XYZ
326 XYZ
327 XYZ
328 XYZ
329 XYZ
330 XYZ
331 XYZ
332 XYZ
333 XYZ
334 XYZ
335 XYZ
336 XYZ
337 XYZ
338 XYZ
339 XYZ
340 XYZ
341 XYZ
342 XYZ
343 XYZ
344 XYZ
345 XYZ
346 XYZ
347 XYZ
348 XYZ
349 XYZ
350 XYZ
351 XYZ
352 XYZ
353 XYZ
354 XYZ
355 XYZ
356 XYZ
357 XYZ
358 XYZ
359 XYZ
360 XYZ
361 XYZ
362 XYZ
363 XYZ
364 XYZ
365 XYZ
366 XYZ
367 XYZ
368 XYZ
369 XYZ
370 XYZ
371 XYZ
372 XYZ
373 XYZ
374 XYZ
375 XYZ
376 XYZ
377 XYZ
378 XYZ
379 XYZ
380 XYZ
381 XYZ
382 XYZ
383 XYZ
384 XYZ
385 XYZ
386 XYZ
387 XYZ
388 XYZ
389 XYZ
390 XYZ
391 XYZ
392 XYZ
393 XYZ
394 XYZ
395 XYZ
396 XYZ
397 XYZ
398 XYZ
399 XYZ
400 XYZ
401 XYZ
402 XYZ
403 XYZ
404 XYZ
405 XYZ
406 XYZ
407 XYZ
408 XYZ
409 XYZ
410 XYZ
411 XYZ
412 XYZ
413 XYZ
414 XYZ
415 XYZ
416 XYZ
417 XYZ
418 XYZ
419 XYZ
420 XYZ
421 XYZ
422 XYZ
423 XYZ
424 XYZ
425 XYZ
426 XYZ
427 XYZ
428 XYZ
429 XYZ
430 XYZ
431 XYZ
432 XYZ
433 XYZ
434 XYZ
435 XYZ
436 XYZ
437 XYZ
438 XYZ
439 XYZ
440 XYZ
441 XYZ
442 XYZ
443 XYZ
444 XYZ
445 XYZ
446 XYZ
447 XYZ
448 XYZ
449 XYZ
450 XYZ
451 XYZ
452 XYZ
453 XYZ
454 XYZ
455 XYZ
456 XYZ
457 XYZ
458 XYZ
459 XYZ
460 XYZ
461 XYZ
462 XYZ
463 XYZ
464 XYZ
465 XYZ
466 XYZ
467 XYZ
468 XYZ
469 XYZ
470 XYZ
471 XYZ
472 XYZ
473 XYZ
474 XYZ
475 XYZ
476 XYZ
477 XYZ
478 XYZ
479 XYZ
480 XYZ
481 XYZ
482 XYZ
483 XYZ
484 XYZ
485 XYZ
486 XYZ
487 XYZ
488 XYZ
489 XYZ
490 XYZ
491 XYZ
492 XYZ
493 XYZ
494 XYZ
495 XYZ
496 XYZ
497 XYZ
498 XYZ
499 XYZ
500 XYZ
501 XYZ
502 XYZ
503 XYZ
504 XYZ
505 XYZ
506 XYZ
507 XYZ
508 XYZ
509 XYZ
510 XYZ
511 XYZ
512 XYZ
513 XYZ
514 XYZ
515 XYZ
516 XYZ
517 XYZ
518 XYZ
519 XYZ
520 XYZ
521 XYZ
522 XYZ
523 XYZ
524 XYZ
525 XYZ
526 XYZ
527 XYZ
528 XYZ
529 XYZ
530 XYZ
531 XYZ
532 XYZ
533 XYZ
534 XYZ
535 XYZ
536 XYZ
537 XYZ
538 XYZ
539 XYZ
540 XYZ
541 XYZ
542 XYZ
543 XYZ
544 XYZ
545 XYZ
546 XYZ
547 XYZ
548 XYZ
549 XYZ
550 XYZ
551 XYZ
552 XYZ
553 XYZ
554 XYZ
555 XYZ
556 XYZ
557 XYZ
558 XYZ
559 XYZ
560 XYZ
561 XYZ
562 XYZ
563 XYZ
564 XYZ
565 XYZ
566 XYZ
567 XYZ
568 XYZ
569 XYZ
570 XYZ
571 XYZ
572 XYZ
573 XYZ
574 XYZ
575 XYZ
576 XYZ
577 XYZ
578 XYZ
579 XYZ
580 XYZ
581 XYZ
582 XYZ
583 XYZ
584 XYZ
585 XYZ
586 XYZ
587 XYZ
588 XYZ
589 XYZ
590 XYZ
591 XYZ
592 XYZ
593 XYZ
594 XYZ
595 XYZ
596 XYZ
597 XYZ
598 XYZ
599 XYZ
600 XYZ
601 XYZ
602 XYZ
603 XYZ
604 XYZ
605 XYZ
606 XYZ
607 XYZ
608 XYZ
609 XYZ
610 XYZ
611 XYZ
612 XYZ
613 XYZ
614 XYZ
615 XYZ
616 XYZ
617 XYZ
618 XYZ
619 XYZ
620 XYZ
621 XYZ
622 XYZ
623 XYZ
624 XYZ
625 XYZ
626 XYZ
627 XYZ
628 XYZ
629 XYZ
630 XYZ
631 XYZ
632 XYZ
633 XYZ
634 XYZ
635 XYZ
636 XYZ
637 XYZ
638 XYZ
639 XYZ
640 XYZ
641 XYZ
642 XYZ
643 XYZ
644 XYZ
645 XYZ
646 XYZ
647 XYZ
648 XYZ
649 XYZ
650 XYZ
651 XYZ
652 XYZ
653 XYZ
654 XYZ
655 XYZ
656 XYZ
657 XYZ
658 XYZ
659 XYZ
660 XYZ
661 XYZ
662 XYZ
663 XYZ
664 XYZ
665 XYZ
666 XYZ
667 XYZ
668 XYZ
669 XYZ
670 XYZ
671 XYZ
672 XYZ
673 XYZ
674 XYZ
675 XYZ
676 XYZ
677 XYZ
678 XYZ
679 XYZ
680 XYZ
681 XYZ
682 XYZ
683 XYZ
684 XYZ
685 XYZ
686 XYZ
687 XYZ
688 XYZ
689 XYZ
690 XYZ
691 XYZ
692 XYZ
693 XYZ
694 XYZ
695 XYZ
696 XYZ
697 XYZ
698 XYZ
699 XYZ
700 XYZ
701 XYZ
702 XYZ
703 XYZ
704 XYZ
705 XYZ
706 XYZ
707 XYZ
708 XYZ
709 XYZ
710 XYZ
711 XYZ
712 XYZ
713 XYZ
714 XYZ
715 XYZ
716 XYZ
717 XYZ
718 XYZ
719 XYZ
720 XYZ
721 XYZ
722 XYZ
723 XYZ
724 XYZ
725 XYZ
726 XYZ
727 XYZ
728 XYZ
729 XYZ
730 XYZ
731 XYZ
732 XYZ
733 XYZ
734 XYZ
735 XYZ
736 XYZ
737 XYZ
738 XYZ
739 XYZ
740 XYZ
741 XYZ
742 XYZ
743 XYZ
744 XYZ
745 XYZ
746 XYZ
747 XYZ
748 XYZ
749 XYZ
750 XYZ
751 XYZ
752 XYZ
753 XYZ
754 XYZ
755 XYZ
756 XYZ
757 XYZ
758 XYZ
759 XYZ
760 XYZ
761 XYZ
762 XYZ
763 XYZ
764 XYZ
765 XYZ
766 XYZ
767 XYZ
768 XYZ
769 XYZ
770 XYZ
771 XYZ
772 XYZ
773 XYZ
774 XYZ
775 XYZ
776 XYZ
777 XYZ
778 XYZ
779 XYZ
780 XYZ
781 XYZ
782 XYZ
783 XYZ
784 XYZ
785 XYZ
786 XYZ
787 XYZ
788 XYZ
789 XYZ
790 XYZ
791 XYZ
792 XYZ
793 XYZ
794 XYZ
795 XYZ
796 XYZ
797 XYZ
798 XYZ
799 XYZ
800 XYZ
801 XYZ
802 XYZ
803 XYZ
804 XYZ
805 XYZ
806 XYZ
807 XYZ
808 XYZ
809 XYZ
810 XYZ
811 XYZ
812 XYZ
813 XYZ
814 XYZ
815 XYZ
816 XYZ
817 XYZ
818 XYZ
819 XYZ
820 XYZ
821 XYZ
822 XYZ
823 XYZ
824 XYZ
825 XYZ
826 XYZ
827 XYZ
828 XYZ
829 XYZ
830 XYZ
831 XYZ
832 XYZ
833 XYZ
834 XYZ
835 XYZ
836 XYZ
837 XYZ
838 XYZ
839 XYZ
840 XYZ
841 XYZ
842 XYZ
843 XYZ
844 XYZ
845 XYZ
846 XYZ
847 XYZ
848 XYZ
849 XYZ
850 XYZ
851 XYZ
852 XYZ
853 XYZ
854 XYZ
855 XYZ
856 XYZ
857 XYZ
858 XYZ
859 XYZ
860 XYZ
861 XYZ
862 XYZ
863 XYZ
864 XYZ
865 XYZ
866 XYZ
867 XYZ
868 XYZ
869 XYZ
870 XYZ
871 XYZ
872 XYZ
873 XYZ
874 XYZ
875 XYZ
876 XYZ
877 XYZ
878 XYZ
879 XYZ
880 XYZ
881 XYZ
882 XYZ
883 XYZ
884 XYZ
885 XYZ
886 XYZ
887 XYZ
888 XYZ
889 XYZ
890 XYZ
891 XYZ
892 XYZ
893 XYZ
894 XYZ
895 XYZ
896 XYZ
897 XYZ
898 XYZ
899 XYZ
900 XYZ
901 XYZ
902 XYZ
903 XYZ
904 XYZ
905 XYZ
906 XYZ
907 XYZ
908 XYZ
909 XYZ
910 XYZ
911 XYZ
912 XYZ
913 XYZ
914 XYZ
915 XYZ
916 XYZ
917 XYZ
918 XYZ
919 XYZ
920 XYZ
921 XYZ
922 XYZ
923 XYZ
924 XYZ
925 XYZ
926 XYZ
927 XYZ
928 XYZ
929 XYZ
930 XYZ
931 XYZ
932 XYZ
933 XYZ
934 XYZ
935 XYZ
936 XYZ
937 XYZ
938 XYZ
939 XYZ
940 XYZ
941 XYZ
942 XYZ
943 XYZ
944 XYZ
945 XYZ
946 XYZ
947 XYZ
948 XYZ
949 XYZ
950 XYZ
951 XYZ
952 XYZ
953 XYZ
954 XYZ
955 XYZ
956 XYZ
957 XYZ
958 XYZ
959 XYZ
960 XYZ
961 XYZ
962 XYZ
963 XYZ
964 XYZ
965 XYZ
966 XYZ
967 XYZ
968 XYZ
969 XYZ
970 XYZ
971 XYZ
972 XYZ
973 XYZ
974 XYZ
975 XYZ
976 XYZ
977 XYZ
978 XYZ
979 XYZ
980 XYZ
981 XYZ
982 XYZ
983 XYZ
984 XYZ
985 XYZ
986 XYZ
987 XYZ
988 XYZ
989 XYZ
990 XYZ
991 XYZ
992 XYZ
993 XYZ
994 XYZ
995 XYZ
996 XYZ
997 XYZ
998 XYZ
999 XYZ
1000 XYZ
1001 XYZ
1002 XYZ
1003 XYZ
1004 XYZ
1005 XYZ
1006 XYZ
1007 XYZ
1008 XYZ
1009 XYZ
1010 XYZ
1011 XYZ
1012 XYZ
1013 XYZ
1014 XYZ
1015 XYZ
1016 XYZ
1017 XYZ
1018 XYZ
1019 XYZ
1020 XYZ
1021 XYZ
1022 XYZ
1023 XYZ
1024 XYZ
1025 XYZ
1026 XYZ
1027 XYZ
1028 XYZ
1029 XYZ
1030 XYZ
1031 XYZ
1032 XYZ
1033 XYZ
1034 XYZ
1035 XYZ
1036 XYZ
1037 XYZ
1038 XYZ
1039 XYZ
1040 XYZ
1041 XYZ
1042 XYZ
1043 XYZ
1044 XYZ
1045 XYZ
1046 XYZ
1047 XYZ
1048 XYZ
1049 XYZ
1050 XYZ
1051 XYZ
1052 XYZ
1053 XYZ
1054 XYZ
1055 XYZ
1056 XYZ
1057 XYZ
1058 XYZ
1059 XYZ
1060 XYZ
1061 XYZ
1062 XYZ
1063 XYZ
1064 XYZ
1065 XYZ
1066 XYZ
1067 XYZ
1068 XYZ
1069 XYZ
1070 XYZ
1071 XYZ
1072 XYZ
1073 XYZ
1074 XYZ
1075 XYZ
1076 XYZ
1077 XYZ
1078 XYZ
1079 XYZ
1080 XYZ
1081 XYZ
1082 XYZ
1083 XYZ
1084 XYZ
1085 XYZ
1086 XYZ
1087 XYZ
1088 XYZ
1089 XYZ
1090 XYZ
1091 XYZ
1092 XYZ
1093 XYZ
1094 XYZ
1095 XYZ
1096 XYZ
1097 XYZ
1098 XYZ
1099 XYZ
1100 XYZ
1101 XYZ
1102 XYZ
1103 XYZ
1104 XYZ
1105 XYZ
1106 XYZ
1107 XYZ
1108 XYZ
1109 XYZ
1110 XYZ
1111 XYZ
1112 XYZ
1113 XYZ
1114 XYZ
1115 XYZ
1116 XYZ
1117 XYZ
1118 XYZ
1119 XYZ
1120 XYZ
1121 XYZ
1122 XYZ
1123 XYZ
1124 XYZ
1125 XYZ
1126 XYZ
1127 XYZ
1128 XYZ
1129 XYZ
1130 XYZ
1131 XYZ
1132 XYZ
1133 XYZ
1134 XYZ
1135 XYZ
1136 XYZ
1137 XYZ
1138 XYZ
1139 XYZ
1140 XYZ
1141 XYZ
1142 XYZ
1143 XYZ
1144 XYZ
1145 XYZ
1146 XYZ
1147 XYZ
1148 XYZ
1149 XYZ
1150 XYZ
1151 XYZ
1152 XYZ
1153 XYZ
1154 XYZ
1155 XYZ
1156 XYZ
1157 XYZ
1158 XYZ
1159 XYZ
1160 XYZ
1161 XYZ
1162 XYZ
1163 XYZ
1164 XYZ
1165 XYZ
1166 XYZ
1167 XYZ
1168 XYZ
1169 XYZ
1170 XYZ
1171 XYZ
1172 XYZ
1173 XYZ
1174 XYZ
1175 XYZ
1176 XYZ
1177 XYZ
1178 XYZ
1179 XYZ
1180 XYZ
1181 XYZ
1182 XYZ
1183 XYZ
1184 XYZ
1185 XYZ
1186 XYZ
1187 XYZ
1188 XYZ
1189 XYZ
1190 XYZ
1191 XYZ
1192 XYZ
1193 XYZ
1194 XYZ
1195 XYZ
1196 XYZ
1197 XYZ
1198 XYZ
1199 XYZ
1200 XYZ
1201 XYZ
1202 XYZ
1203 XYZ
1204 XYZ
1205 XYZ
1206 XYZ
1207 XYZ
1208 XYZ
1209 XYZ
1210 XYZ
1211 XYZ
1212 XYZ
1213 XYZ
1214 XYZ
1215 XYZ
1216 XYZ
1217 XYZ
1218 XYZ
1219 XYZ
1220 XYZ
1221 XYZ
1222 XYZ
1223 XYZ
1224 XYZ
1225 XYZ
1226 XYZ
1227 XYZ
1228 XYZ
1229 XYZ
1230 XYZ
1231 XYZ
1232 XYZ
1233 XYZ
1234 XYZ
1235 XYZ
1236 XYZ
1237 XYZ
1238 XYZ
1239 XYZ
1240 XYZ
1241 XYZ
1242 XYZ
1243 XYZ
1244 XYZ
1245 XYZ
1246 XYZ
1247 XYZ
1248 XYZ
1249 XYZ
1250 XYZ
1251 XYZ
1252 XYZ
1253 XYZ
1254 XYZ
1255 XYZ
1256 XYZ
1257 XYZ
1258 XYZ
1259 XYZ
1260 XYZ
1261 XYZ
1262 XYZ
1263 XYZ
1264 XYZ
1265 XYZ
1266 XYZ
1267 XYZ
1268 XYZ
1269 XYZ
1270 XYZ
1271 XYZ
1272 XYZ
1273 XYZ
1274 XYZ
1275 XYZ
1276 XYZ
1277 XYZ
1278 XYZ
1279 XYZ
1280 XYZ
1281 XYZ
1282 XYZ
1283 XYZ
1284 XYZ
1285 XYZ
1286 XYZ
1287 XYZ
1288 XYZ
1289 XYZ
1290 XYZ
1291 XYZ
1292 XYZ
1293 XYZ
1294 XYZ
1295 XYZ
1296 XYZ
1297 XYZ
1298 XYZ
1299 XYZ
1300 XYZ
1301 XYZ
1302 XYZ
1303 XYZ
1304 XYZ
1305 XYZ
1306 XYZ
1307 XYZ
1308 XYZ
1309 XYZ
1310 XYZ
1311 XYZ
1312 XYZ
1313 XYZ
1314 XYZ
1315 XYZ
1316 XYZ
1317 XYZ
1318 XYZ
1319 XYZ
1320 XYZ
1321 XYZ
1322 XYZ
1323 XYZ
1324 XYZ
1325 XYZ
1326 XYZ
1327 XYZ
1328 XYZ
1329 XYZ
1330 XYZ
1331 XYZ
1332 XYZ
1333 XYZ
1334 XYZ
1335 XYZ
1336 XYZ
1337 XYZ
1338 XYZ
1339 XYZ
1340 XYZ
1341 XYZ
1342 XYZ
1343 XYZ
1344 XYZ
1345 XYZ
1346 XYZ
1347 XYZ
1348 XYZ
1349 XYZ
1350 XYZ
1351 XYZ
1352 XYZ
1353 XYZ
1354 XYZ
1355 XYZ
1356 XYZ
1357 XYZ
1358 XYZ
1359 XYZ
1360 XYZ
1361 XYZ
1362 XYZ
1363 XYZ
1364 XYZ
1365 XYZ
1366 XYZ
1367 XYZ
1368 XYZ
1369 XYZ
1370 XYZ
1371 XYZ
1372 XYZ
1373 XYZ
1374 XYZ
1375 XYZ
1376 XYZ
1377 XYZ
1378 XYZ
1379 XYZ
1380 XYZ
1381 XYZ
1382 XYZ
1383 XYZ
1384 XYZ
1385 XYZ
1386 XYZ
1387 XYZ
1388 XYZ
1389 XYZ
1390 XYZ
1391 XYZ
1392 XYZ
1393 XYZ
1394 XYZ
1395 XYZ
1396 XYZ
1397 XYZ
1398 XYZ
1399 XYZ
1400 XYZ
1401 XYZ
1402 XYZ
1403 XYZ
1404 XYZ
1405 XYZ
1406 XYZ
1407 XYZ
1408 XYZ
1409 XYZ
1410 XYZ
1411 XYZ
1412 XYZ
1413 XYZ
1414 XYZ
1415 XYZ
1416 XYZ
1417 XYZ
1418 XYZ
1419 XYZ
1420 XYZ
1421 XYZ
1422 XYZ
1423 XYZ
1424 XYZ
1425 XYZ
1426 XYZ
1427 XYZ
1428 XYZ
1429 XYZ
1430 XYZ
1431 XYZ
1432 XYZ
1433 XYZ
1434 XYZ
1435 XYZ
1436 XYZ
1437 XYZ
1438 XYZ
endfixed
$end

$molecule
0 1
H       -1.3223716081     0.1973352092     -0.7202224683 0  3  0  0  0
H       -0.4725167003     1.4068338466     0.3081154369 0  3  0  0  0
C       -0.6370113616     0.3327751131     0.1301128394 0  1  2  4  6
H       -1.0964169806     -0.1149731384     1.0165189307 0  3  0  0  0
H       1.0064026752     -0.0747891317     -0.9105602353 0  6  0  0  0
O       0.5966763981     -0.3387811569     -0.0783261498 0  3  5  0  0
H       1.5646940000     -1.1617190000     -0.5714160000 0  9  0  0  0
Al       1.5494460000     -3.2324190000     -1.9116440000 0  9  10  11  12
O       2.2985780000     -1.7899680000     -0.9348270000 0  13  7  8  0
O       1.8046790000     -2.9870120000     -3.5908280000 0  14  8  0  0
O       2.2935390000     -4.6798530000     -1.3444490000 0  15  8  0  0
O       -0.0880100000     -3.0360320000     -1.3995690000 0  16  8  0  0
Si       3.8249770000     -1.1177560000     -0.7169700000 0  9  18  19  17
Si       2.3260410000     -3.8147870000     -4.8996410000 0  58  59  60  10
Si       2.3945920000     -6.0472010000     -0.4935510000 0  11  20  61  62
Si       -1.5343330000     -3.7354120000     -1.4285460000 0  12  21  22  63
O       4.8664240000     -2.1536260000     -0.0345770000 0  13  23  0  0
O       3.5407380000     0.1821440000     0.2162650000 0  13  24  0  0
O       4.4136300000     -0.6538580000     -2.1473660000 0  25  13  0  0
O       2.4750000000     -5.7073090000     1.1280200000 0  26  15  0  0
O       -1.8254600000     -4.4430290000     0.0373710000 0  27  16  0  0
O       -2.6760180000     -2.5673500000     -1.6685600000 0  28  16  0  0
Si       5.6968950000     -2.9040520000     1.1825100000 0  17  66  67  30
Si       3.9402620000     1.2978510000     1.3440290000 0  33  18  68  36
Si       5.7988350000     -0.6713650000     -3.0544100000 0  19  69  70  71
Si       1.5544390000     -5.3722100000     2.4246330000 0  65  20  31  32
Si       -1.4710160000     -5.0299730000     1.5251640000 0  74  75  21  32
Si       -4.0785390000     -2.0032330000     -1.1035360000 0  89  54  22  55
O       3.2604400000     -1.8377070000     3.7245730000 0  34  35  0  0
O       4.6355700000     -3.5544170000     2.2284080000 0  34  23  0  0
O       2.3382910000     -4.2906460000     3.3871220000 0  26  34  0  0
O       0.1056620000     -4.7561900000     1.9502440000 0  26  27  0  0
O       3.8049700000     0.6429340000     2.8221290000 0  35  24  0  0
Si       3.6939570000     -3.4127800000     3.5591840000 0  29  30  31  64
Si       3.6485450000     -0.3062340000     4.1512490000 0  33  73  29  72
O       2.8781660000     2.5328120000     1.1593060000 0  37  24  0  0
Si       2.1689000000     3.7372810000     2.0177950000 0  41  42  36  78
O       -2.1737010000     4.5262790000     2.2425990000 0  49  48  0  0
O       -3.4871330000     2.2981130000     2.9333450000 0  52  48  0  0
O       -3.2597830000     3.6537800000     -0.0432080000 0  49  53  0  0
O       1.0121530000     4.4023630000     1.0843710000 0  50  37  0  0
O       1.5190010000     3.0786490000     3.3624090000 0  51  37  0  0
O       -1.1861510000     5.3203670000     -0.1095810000 0  49  50  0  0
O       -1.0925000000     2.8106630000     3.9742310000 0  51  48  0  0
O       -5.0875090000     1.9090730000     0.8270490000 0  52  53  0  0
O       -4.6451380000     2.2021290000     -1.7966670000 0  53  56  0  0
O       -4.2357610000     -0.1689520000     2.2972550000 0  57  52  0  0
Si       -2.4969930000     3.4744630000     3.4635270000 0  84  44  38  39
Si       -2.5511620000     4.9276300000     0.6945340000 0  43  85  38  40
Si       0.3639710000     5.6804490000     0.2771560000 0  41  43  83  79
Si       0.3904870000     3.2285200000     4.5505290000 0  42  44  77  80
Si       -4.7061990000     1.3922980000     2.3380360000 0  39  45  86  47
Si       -4.7162090000     2.9748720000     -0.3658160000 0  45  46  87  40
O       -4.2054920000     -0.4104330000     -1.4766010000 0  28  56  0  0
O       -4.1024830000     -2.1803600000     0.5241730000 0  57  28  0  0
Si       -4.9856150000     0.7087080000     -2.3884070000 0  76  46  54  88
Si       -4.8172220000     -1.6631530000     1.9025140000 0  55  82  81  47
O	  3.919721	 -4.233835	 -4.515013	 -1	 90	 14	 0	 0
O	  1.276154	 -5.088333	 -5.275867	 -1	 91	 14	 0	 0
O	  2.244792	 -2.801664	 -6.198470	 -1	 92	 14	 0	 0
O	  3.748876	 -6.822824	 -0.840096	 -1	 93	 15	 0	 0
O	  1.114175	 -7.039120	 -0.709657	 -1	 94	 15	 0	 0
O	 -1.761821	 -4.764312	 -2.653267	 -1	 95	 16	 0	 0
O	  4.625782	 -3.866602	  4.785881	 -1	 34	 96	 0	 0
O	  1.369987	 -6.709347	  3.271848	 -1	 97	 26	 0	 0
O	  6.574389	 -4.080947	  0.572046	 -1	 109	 23	 0	 0
O	  6.629304	 -1.806113	  1.938709	 -1	 110	 23	 0	 0
O	  5.430027	  1.822662	  1.120479	 -1	 111	 24	 0	 0
O	  6.212219	 -2.169121	 -3.386547	 -1	 25	 112	 0	 0
O	  7.003615	  0.109292	 -2.292252	 -1	 113	 25	 0	 0
O	  5.424371	 -0.021850	 -4.444591	 -1	 25	 114	 0	 0
O	  5.073023	 -0.320190	  4.879397	 -1	 35	 104	 0	 0
O	  2.493017	  0.270701	  5.084641	 -1	 105	 35	 0	 0
O	 -1.705322	 -6.618557	  1.462970	 -1	 115	 27	 0	 0
O	 -2.396179	 -4.369887	  2.679828	 -1	 27	 116	 0	 0
O	 -4.486700	  0.639231	 -3.904254	 -1	 484	 56	 0	 0
O	  0.793253	  2.228476	  5.712785	 -1	 105	 51	 0	 0
O	  3.218829	  4.867350	  2.440684	 -1	 37	 232	 0	 0
O	  0.385159	  6.982460	  1.220701	 -1	 50	 230	 0	 0
O	  0.357389	  4.754553	  5.067093	 -1	 51	 229	 0	 0
O	 -4.441792	 -2.683225	  3.058445	 -1	 57	 116	 0	 0
O	 -6.412902	 -1.566437	  1.683229	 -1	 57	 733	 0	 0
O	  1.192694	  5.922749	 -1.064507	 -1	 50	 539	 0	 0
O	 -3.173571	  4.267108	  4.672343	 -1	 647	 48	 0	 0
O	 -3.535741	  6.178934	  0.713751	 -1	 49	 648	 0	 0
O	 -5.999793	  1.524628	  3.259835	 -1	 52	 655	 0	 0
O	 -5.828948	  4.113617	 -0.415082	 -1	 53	 656	 0	 0
O	 -6.568359	  0.456183	 -2.295146	 -1	 734	 56	 0	 0
O	 -5.330089	 -2.775525	 -1.728094	 -1	 28	 736	 0	 0
Si	  5.054885	 -5.376852	 -4.459816	 -23	 58	 1188	 1189	 127
Si	 -0.011410	 -5.743860	 -6.011010	 -23	 59	 1196	 1198	 128
Si	  3.224341	 -2.041851	 -7.232506	 -23	 1193	 60	 1191	 1192
Si	  5.071479	 -6.954228	 -1.750064	 -23	 1187	 61	 1190	 127
Si	  0.086283	 -7.995532	 -1.506104	 -23	 129	 1194	 1195	 62
Si	 -1.821391	 -6.062746	 -3.609707	 -23	 129	 1197	 63	 128
Si	  4.478048	 -4.296470	  6.329263	 -23	 98	 99	 100	 64
Si	  1.053178	 -7.431698	  4.682061	 -23	 65	 101	 102	 103
O	  2.928233	 -4.215653	  6.885954	 -1	 106	 96	 0	 0
O	  4.994686	 -5.823472	  6.495571	 -1	 107	 96	 0	 0
O	  5.383963	 -3.292384	  7.214765	 -1	 108	 96	 0	 0
O	  0.694680	 -6.324373	  5.814171	 -1	 97	 117	 0	 0
O	  2.368038	 -8.264395	  5.166933	 -1	 97	 118	 0	 0
O	 -0.202572	 -8.450237	  4.504373	 -1	 97	 119	 0	 0
Si	  6.668458	 -0.256578	  5.172455	 -23	 151	 157	 215	 72
Si	  2.101454	  1.395293	  6.186775	 -22	 73	 165	 77	 168
Si	  1.746971	 -3.570925	  7.785784	 -2	 206	 98	 150	 191
Si	  5.088832	 -7.047264	  7.563005	 -2	 99	 148	 214	 207
Si	  6.642946	 -2.286077	  7.428145	 -2	 201	 202	 100	 215
Si	  7.253144	 -4.909520	 -0.641837	 -23	 1187	 66	 283	 271
Si	  7.798170	 -0.742700	  2.300439	 -23	 67	 156	 151	 152
Si	  7.029040	  1.925301	  0.884253	 -23	 155	 68	 156	 158
Si	  7.198259	 -3.453313	 -3.408307	 -23	 1188	 69	 271	 280
Si	  7.928417	  1.402026	 -1.950745	 -23	 154	 155	 382	 70
Si	  5.386933	 -0.180072	 -6.061996	 -23	 1193	 474	 71	 464
Si	 -1.799037	 -8.154666	  0.949797	 -23	 74	 1194	 706	 696
Si	 -3.929651	 -4.216273	  3.191568	 -22	 81	 75	 180	 713
Si	 -0.371208	 -5.541954	  6.747349	 -2	 138	 101	 150	 142
Si	  2.929312	 -9.045007	  6.479290	 -2	 147	 148	 102	 143
Si	 -1.106647	 -9.461991	  3.603385	 -2	 690	 691	 103	 696
O	 -1.985791	 -6.939546	  10.324551	 -1	 228	 220	 0	 0
O	  6.392325	  3.381997	  10.261861	 -1	 221	 248	 0	 0
O	  6.324960	  1.070110	  14.731971	 -1	 225	 252	 0	 0
O	  12.175404	 -3.102539	  10.668997	 -1	 250	 223	 0	 0
O	  12.002676	 -4.561780	  13.782010	 -1	 251	 224	 0	 0
O	  2.090719	 -10.033932	  10.077843	 -1	 226	 227	 0	 0
O	  4.257416	 -10.663040	  11.451213	 -1	 226	 258	 0	 0
O	  4.758655	 -6.440005	 -3.265151	 -1	 90	 93	 0	 0
O	 -1.348305	 -5.643218	 -5.099195	 -1	 91	 95	 0	 0
O	 -0.498778	 -7.249823	 -2.829641	 -1	 94	 95	 0	 0
O	 -3.929090	 -5.377796	  7.280081	 -1	 217	 216	 0	 0
O	 -5.869355	 -4.346717	  8.729865	 -1	 217	 632	 0	 0
O	  2.902595	 -13.019747	  7.060601	 -1	 218	 219	 0	 0
O	 -4.526533	 -6.441525	  9.624887	 -1	 217	 220	 0	 0
O	  6.376481	  4.650936	  12.582501	 -1	 221	 222	 0	 0
O	  5.007753	  5.809574	  14.480103	 -1	 634	 222	 0	 0
O	  13.759902	 -2.811529	  12.807315	 -1	 223	 224	 0	 0
O	  6.520890	  3.708633	  15.075263	 -1	 225	 222	 0	 0
O	 -1.696284	 -5.146945	  5.905789	 -1	 117	 216	 0	 0
O	 -3.454120	 -8.849398	  9.217285	 -1	 220	 725	 0	 0
O	  6.778266	  11.069827	  1.788194	 -1	 490	 237	 0	 0
O	  0.118665	 -8.380686	  9.616591	 -1	 227	 228	 0	 0
O	 -0.809037	 -6.502386	  7.989344	 -1	 228	 117	 0	 0
O	  1.780212	 -8.998059	  7.637520	 -1	 227	 118	 0	 0
O	  0.075522	 -10.818843	  8.564007	 -1	 227	 724	 0	 0
O	  1.509087	 -14.057030	  9.039872	 -1	 723	 219	 0	 0
O	  3.431264	 -12.271909	  9.549130	 -1	 226	 219	 0	 0
O	  3.319812	 -10.572210	  6.095989	 -1	 218	 118	 0	 0
O	  4.285502	 -8.339046	  7.015258	 -1	 107	 118	 0	 0
O	  0.365810	 -5.827156	  10.292555	 -1	 260	 228	 0	 0
O	  0.321646	 -4.180713	  7.304281	 -1	 106	 117	 0	 0
O	  7.553388	 -0.224975	  3.817205	 -1	 110	 104	 0	 0
O	  9.264602	 -1.429815	  2.214839	 -1	 110	 312	 0	 0
O	  0.462599	  7.086917	  3.847436	 -1	 229	 230	 0	 0
O	  9.432393	  0.871422	 -1.635411	 -1	 113	 313	 0	 0
O	  7.337691	  2.218370	 -0.679544	 -1	 113	 111	 0	 0
O	  7.754078	  0.524405	  1.283240	 -1	 110	 111	 0	 0
O	  7.003151	  1.082194	  6.035567	 -1	 234	 104	 0	 0
O	  7.610867	  3.157324	  1.767318	 -1	 233	 111	 0	 0
O	  4.491248	  7.160181	  2.464686	 -1	 231	 232	 0	 0
O	  5.861543	  4.938426	  2.659083	 -1	 233	 232	 0	 0
O	  6.752330	  3.045951	  4.280052	 -1	 233	 234	 0	 0
O	  5.811700	  3.351423	  6.751191	 -1	 234	 235	 0	 0
O	  3.704685	  4.915139	  7.137025	 -1	 235	 236	 0	 0
O	  4.335165	  5.703327	  4.696166	 -1	 236	 232	 0	 0
O	  3.378537	  2.384694	  6.379357	 -1	 105	 235	 0	 0
O	  2.199101	  8.518615	  2.427665	 -1	 230	 231	 0	 0
O	  2.095800	  6.608892	  5.880252	 -1	 236	 229	 0	 0
O	  1.691897	  0.686260	  7.587903	 -1	 105	 243	 0	 0
O	  4.193717	  2.966046	  8.839116	 -1	 235	 248	 0	 0
O	  4.485777	  9.789902	  2.205194	 -1	 237	 231	 0	 0
O	  4.409823	  7.445142	  6.710513	 -1	 242	 236	 0	 0
O	  8.386908	  4.994882	  3.452781	 -1	 233	 239	 0	 0
O	  8.414132	  3.296955	  6.353921	 -1	 234	 240	 0	 0
O	  6.678777	  9.069551	  3.500558	 -1	 237	 238	 0	 0
O	  8.749330	  7.552524	  4.098363	 -1	 238	 239	 0	 0
O	  9.554154	  5.644401	  5.752968	 -1	 239	 240	 0	 0
O	  8.090426	  5.375448	  7.951376	 -1	 241	 240	 0	 0
O	  6.404555	  7.359650	  8.460120	 -1	 241	 242	 0	 0
O	  6.897828	  7.992849	  5.936546	 -1	 242	 238	 0	 0
O	 -4.019969	 -4.586115	  4.770747	 -1	 116	 216	 0	 0
O	  7.306188	  5.872825	  10.437443	 -1	 241	 221	 0	 0
O	  1.168850	 -0.613956	  9.817969	 -1	 243	 244	 0	 0
O	 -0.513291	  0.611123	  11.431782	 -1	 659	 244	 0	 0
O	  8.277939	 -7.990634	  9.785311	 -1	 245	 246	 0	 0
O	  0.973771	 -1.361473	  12.354390	 -1	 244	 247	 0	 0
O	  4.147454	  2.626900	  11.449956	 -1	 249	 248	 0	 0
O	  2.196018	  3.201912	  13.090577	 -1	 249	 661	 0	 0
O	  10.947881	 -5.338062	  11.440352	 -1	 250	 251	 0	 0
O	  3.868926	  1.242545	  13.708745	 -1	 249	 252	 0	 0
O	  2.139364	  0.932819	  11.717830	 -1	 249	 244	 0	 0
O	  1.718840	 -1.958527	  7.617967	 -1	 106	 243	 0	 0
O	  3.656144	 -0.589495	  8.804223	 -1	 243	 256	 0	 0
O	  5.535511	  0.927516	  9.938097	 -1	 256	 248	 0	 0
O	  1.236953	 -3.983526	  11.904298	 -1	 260	 247	 0	 0
O	  3.349428	 -2.542520	  12.628294	 -1	 247	 255	 0	 0
O	  5.345962	 -0.983423	  13.458403	 -1	 252	 255	 0	 0
O	  3.665335	  8.232810	  0.209642	 -1	 545	 231	 0	 0
O	  7.747633	 -5.204398	  12.627761	 -1	 253	 254	 0	 0
O	  5.836117	 -3.395903	  12.522367	 -1	 254	 255	 0	 0
O	  5.018936	 -1.497657	  10.869699	 -1	 255	 256	 0	 0
O	  6.224292	 -1.168172	  8.530889	 -1	 108	 256	 0	 0